
Welcome to IBM(R) ILOG(R) CPLEX(R) Interactive Optimizer 22.1.1.0
  with Simplex, Mixed Integer & Barrier Optimizers
5725-A06 5725-A29 5724-Y48 5724-Y49 5724-Y54 5724-Y55 5655-Y21
Copyright IBM Corp. 1988, 2022.  All Rights Reserved.

Type 'help' for a list of available commands.
Type 'help' followed by a command name for more
information on commands.

CPLEX> Selected objective sense:  MINIMIZE
Selected objective  name:  00000000
Selected RHS        name:  RHS1
Selected bound      name:  BOUND
Problem 'ee.mps' read.
Read time = 0.01 sec. (3.14 ticks)
CPLEX> New value for time limit in seconds: 7200
CPLEX> New value for parallel optimization mode: -1
CPLEX> New value for default parallel thread count: 40
CPLEX> New value for mixed integer optimality gap tolerance: 1e-13
CPLEX> Version identifier: 22.1.1.0 | 2022-11-28 | 9160aff4d
CPXPARAM_Threads                                 40
CPXPARAM_Parallel                                -1
CPXPARAM_TimeLimit                               7200
CPXPARAM_MIP_Tolerances_MIPGap                   1e-13
Found incumbent of value 0.000000 after 0.00 sec. (0.31 ticks)
Tried aggregator 2 times.
MIP Presolve eliminated 181 rows and 2745 columns.
MIP Presolve modified 5862 coefficients.
Aggregator did 713 substitutions.
Reduced MIP has 3623 rows, 7739 columns, and 28643 nonzeros.
Reduced MIP has 7739 binaries, 0 generals, 0 SOSs, and 0 indicators.
Presolve time = 0.07 sec. (68.56 ticks)
Probing time = 0.03 sec. (5.29 ticks)
Tried aggregator 1 time.
Detecting symmetries...
Reduced MIP has 3623 rows, 7739 columns, and 28643 nonzeros.
Reduced MIP has 7739 binaries, 0 generals, 0 SOSs, and 0 indicators.
Presolve time = 0.03 sec. (21.84 ticks)
Probing time = 0.02 sec. (5.11 ticks)
Clique table members: 18551.
MIP emphasis: balance optimality and feasibility.
MIP search method: dynamic search.
Parallel mode: opportunistic, using up to 40 threads.
Root relaxation solution time = 0.11 sec. (90.65 ticks)

        Nodes                                         Cuts/
   Node  Left     Objective  IInf  Best Integer    Best Bound    ItCnt     Gap

*     0+    0                            0.0000  -1.31000e+13              --- 
*     0+    0                      -5.39000e+12  -1.31000e+13           143.04%
*     0+    0                      -5.50000e+12  -1.31000e+13           138.18%
      0     0  -1.30900e+13    64  -5.50000e+12  -1.30900e+13     2263  138.00%
*     0+    0                      -1.30900e+13  -1.30900e+13             0.00%
*     0+    0                      -1.30900e+13  -1.30900e+13             0.00%
      0     0  -1.30900e+13   144  -1.30900e+13      Cuts: 62     2754    0.00%
      0     0  -1.30900e+13   153  -1.30900e+13      Cuts: 73     3000    0.00%
*     0+    0                      -1.30900e+13  -1.30900e+13             0.00%
*     0+    0                      -1.30900e+13  -1.30900e+13             0.00%
*     0+    0                      -1.30900e+13  -1.30900e+13             0.00%
      0     0  -1.00000e+75     0  -1.30900e+13  -1.30900e+13     3000    0.00%

Repeating presolve.
Tried aggregator 3 times.
MIP Presolve eliminated 1898 rows and 4177 columns.
MIP Presolve added 4 rows and 0 columns.
MIP Presolve modified 28 coefficients.
Aggregator did 376 substitutions.
Reduced MIP has 1353 rows, 3157 columns, and 11128 nonzeros.
Reduced MIP has 3157 binaries, 0 generals, 0 SOSs, and 0 indicators.
Presolve time = 0.04 sec. (46.70 ticks)
Probing fixed 1 vars, tightened 0 bounds.
Probing time = 0.02 sec. (6.85 ticks)
Tried aggregator 1 time.
Detecting symmetries...
MIP Presolve eliminated 0 rows and 1 columns.
Reduced MIP has 1353 rows, 3156 columns, and 11124 nonzeros.
Reduced MIP has 3156 binaries, 0 generals, 0 SOSs, and 0 indicators.
Presolve time = 0.01 sec. (8.18 ticks)
Represolve time = 0.09 sec. (75.80 ticks)
Probing time = 0.01 sec. (3.59 ticks)
Clique table members: 7511.
MIP emphasis: balance optimality and feasibility.
MIP search method: dynamic search.
Parallel mode: opportunistic, using up to 40 threads.
Root relaxation solution time = 0.05 sec. (28.41 ticks)

        Nodes                                         Cuts/
   Node  Left     Objective  IInf  Best Integer    Best Bound    ItCnt     Gap

*     0+    0                      -1.30900e+13  -1.30900e+13             0.00%
      0     0  -1.30900e+13   100  -1.30900e+13  -1.30900e+13     3901    0.00%
*     0+    0                      -1.30900e+13  -1.30900e+13             0.00%
      0     0  -1.30900e+13   109  -1.30900e+13      Cuts: 77     4155    0.00%
      0     0  -1.30900e+13   140  -1.30900e+13      Cuts: 59     4451    0.00%
*     0+    0                      -1.30900e+13  -1.30900e+13             0.00%
      0     3    infeasible        -1.30900e+13  -1.30900e+13     4593    0.00%
Elapsed time = 1.67 sec. (1027.05 ticks, tree = 0.02 MB, solutions = 11)
   1111    25  -1.30900e+13    52  -1.30900e+13  -1.30900e+13    67575    0.00%

Clique cuts applied:  24
Cover cuts applied:  278
Flow cuts applied:  5
Mixed integer rounding cuts applied:  7
Zero-half cuts applied:  15
Lift and project cuts applied:  10
Gomory fractional cuts applied:  12

Root node processing (before b&c):
  Real time             =    1.29 sec. (1027.37 ticks)
Parallel b&c, 40 threads:
  Real time             =    1.15 sec. (361.39 ticks)
  Sync time (average)   =    0.54 sec.
  Wait time (average)   =    0.00 sec.
                          ------------
Total (root+branch&cut) =    2.43 sec. (1388.76 ticks)

Solution pool: 18 solutions saved.

MIP - Integer optimal solution:  Objective = -1.3089999490e+13
Solution time =    2.49 sec.  Iterations = 82611  Nodes = 1442
Deterministic time = 1388.80 ticks  (556.92 ticks/sec)

CPLEX> Solution 'p19' written to file 'ee.sol'.
CPLEX> 